p cnf 54 99
-1 -2 0
-3 -4 0
-5 -6 0
-7 -8 0
1 2 0
3 4 0
5 6 0
7 8 0
1 17 0
-18 0
3 19 0
-17 19 0
3 -18 0
5 21 0
-19 21 0
5 -20 0
7 -22 0
3 -17 20 0
-18 20 0
5 -19 22 0
-20 22 0
-1 9 0
-10 0
-3 11 0
-9 11 0
-3 -10 0
-5 13 0
-11 13 0
-5 -12 0
-7 -14 0
-3 -9 12 0
-10 12 0
-5 -11 14 0
-12 14 0
1 3 -25 0
-1 3 25 0
1 -3 25 0
-1 -3 -25 0
1 5 -26 0
-1 5 26 0
1 -5 26 0
-1 -5 -26 0
1 7 -27 0
-1 7 27 0
1 -7 27 0
-1 -7 -27 0
3 5 -28 0
-3 5 28 0
3 -5 28 0
-3 -5 -28 0
3 7 -29 0
-3 7 29 0
3 -7 29 0
-3 -7 -29 0
5 7 -30 0
-5 7 30 0
5 -7 30 0
-5 -7 -30 0
-25 31 0
-32 0
-33 0
-34 0
-26 35 0
-31 35 0
-26 -34 0
-27 39 0
-35 39 0
-27 -38 0
-28 43 0
-39 43 0
-28 -42 0
-29 47 0
-43 47 0
-29 -46 0
-30 -50 0
-26 -31 36 0
-32 36 0
-26 -32 37 0
-33 37 0
-26 -33 38 0
-34 38 0
-27 -35 40 0
-36 40 0
-27 -36 41 0
-37 41 0
-27 -37 42 0
-38 42 0
-28 -39 44 0
-40 44 0
-28 -40 45 0
-41 45 0
-28 -41 46 0
-42 46 0
-29 -43 48 0
-44 48 0
-29 -44 49 0
-45 49 0
-29 -45 50 0
-46 50 0
